NAME : default 5 city
COMMENT : default 5 city for AIM visualization
TYPE : TSP
DIMENSION : 5
EDGE_WEIGHT_TYPE : EUC_2D
NODE_COORD_SECTION
1 1.309016994 1.951056516
2 0.190983006 1.587785252
3 0.190983006 0.412214748
4 1.309016994 0.048943484
5 2 1
EOF
